; benchmark generated from python API
(set-info :status unknown)
(declare-fun x_months () Int)
(declare-fun x_beta () Int)
(assert
 (<= (- 1202) x_months))
(assert
 (>= 1209 x_months))
(assert
 (>= x_beta 0))
(assert
 (let ((?x3823 (+ x_months 24003)))
 (let ((?x2317 (- ?x3823 (* (div (- ?x3823 1) 12) 12))))
 (let ((?x3381 (ite (or (= ?x2317 4) (= ?x2317 6) (= ?x2317 9) (= ?x2317 11)) 30 31)))
 (let (($x2739 (and (= (mod (div (- ?x3823 1) 12) 4) 0) (and (distinct (mod (div (- ?x3823 1) 12) 100) 0) true))))
 (let ((?x4462 (ite (or $x2739 (= (mod (div (- ?x3823 1) 12) 400) 0)) 29 28)))
 (< x_beta (ite (= ?x2317 2) ?x4462 ?x3381))))))))
(assert
 (let (($x3918 (and (= x_months (- (+ (* 2023 12) 1) 24003)) (<= 0 x_beta))))
 (or (> x_months (- (+ (* 2023 12) 1) 24003)) $x3918)))
(assert
 (let (($x2791 (and (= x_months (- (+ (* 2023 12) 12) 24003)) (>= 30 x_beta))))
 (or (< x_months (- (+ (* 2023 12) 12) 24003)) $x2791)))
(assert
 (let ((?x1446 (+ x_beta 1)))
(let ((?x2706 (+ (+ x_months 0) 24003)))
(let ((?x1947 (- ?x2706 (* (div (- ?x2706 1) 12) 12))))
(let ((?x1044 (ite (or (= ?x1947 4) (= ?x1947 6) (= ?x1947 9) (= ?x1947 11)) 30 31)))
(let (($x2888 (and (= (mod (div (- ?x2706 1) 12) 4) 0) (and (distinct (mod (div (- ?x2706 1) 12) 100) 0) true))))
(let (($x3802 (or $x2888 (= (mod (div (- ?x2706 1) 12) 400) 0))))
(let ((?x3893 (ite (= ?x1947 2) (ite $x3802 29 28) ?x1044)))
(let (($x1605 (> 1 ?x1446)))
(let ((?x3994 (ite $x1605 1 (ite (> ?x1446 ?x3893) ?x3893 ?x1446))))
(let ((?x1427 (ite (> 1 ?x3994) 1 (ite (> ?x3994 ?x3893) ?x3893 ?x3994))))
(let ((?x1899 (ite (= 2 ?x1947) (ite $x3802 31 31) (ite (= 1 ?x1947) (ite $x3802 0 0) 0))))
(let ((?x1557 (ite (= 4 ?x1947) (ite $x3802 91 90) (ite (= 3 ?x1947) (ite $x3802 60 59) ?x1899))))
(let ((?x4604 (ite (= 6 ?x1947) (ite $x3802 152 151) (ite (= 5 ?x1947) (ite $x3802 121 120) ?x1557))))
(let ((?x1127 (ite (= 8 ?x1947) (ite $x3802 213 212) (ite (= 7 ?x1947) (ite $x3802 182 181) ?x4604))))
(let ((?x2793 (ite (= 10 ?x1947) (ite $x3802 274 273) (ite (= 9 ?x1947) (ite $x3802 244 243) ?x1127))))
(let ((?x4635 (ite (= 12 ?x1947) (ite $x3802 335 334) (ite (= 11 ?x1947) (ite $x3802 305 304) ?x2793))))
(let ((?x2098 (+ (* 365 (- (div (- ?x2706 1) 12) 1)) (div (- (div (- ?x2706 1) 12) 1) 4))))
(let ((?x3344 (+ (- ?x2098 (div (- (div (- ?x2706 1) 12) 1) 100)) (div (- (div (- ?x2706 1) 12) 1) 400))))
(let ((?x924 (+ (+ (- (+ (+ ?x3344 ?x4635) (- ?x1427 1)) 730179) 61) 730179)))
(let ((?x4475 (mod ?x924 146097)))
(let ((?x1057 (div ?x4475 36524)))
(let ((?x4474 (ite (<= 4 ?x1057) 3 ?x1057)))
(let ((?x3448 (- ?x4475 (* ?x4474 36524))))
(let ((?x1361 (mod ?x3448 1461)))
(let ((?x1416 (div ?x1361 365)))
(let ((?x4617 (ite (<= 4 ?x1416) 3 ?x1416)))
(let ((?x4343 (+ (+ (* (div ?x924 146097) 400) (* ?x4474 100)) (* (div ?x3448 1461) 4))))
(let ((?x3979 (+ (+ ?x4343 ?x4617) 1)))
(let (($x1523 (or (and (= (mod ?x3979 4) 0) (and (distinct (mod ?x3979 100) 0) true)) (= (mod ?x3979 400) 0))))
(let ((?x1610 (- ?x1361 (* ?x4617 365))))
(let ((?x4522 (ite $x1523 31 31)))
(let (($x2993 (>= ?x1610 ?x4522)))
(let ((?x978 (ite $x2993 (+ (- ?x1610 ?x4522) 1) (+ (- ?x1610 (ite $x1523 0 0)) 1))))
(let ((?x2192 (ite $x1523 60 59)))
(let (($x4365 (>= ?x1610 ?x2192)))
(let ((?x4497 (ite $x1523 91 90)))
(let (($x2965 (>= ?x1610 ?x4497)))
(let ((?x1805 (ite $x2965 (+ (- ?x1610 ?x4497) 1) (ite $x4365 (+ (- ?x1610 ?x2192) 1) ?x978))))
(let ((?x2538 (ite $x1523 121 120)))
(let (($x3263 (>= ?x1610 ?x2538)))
(let ((?x2579 (ite $x1523 152 151)))
(let (($x3401 (>= ?x1610 ?x2579)))
(let ((?x3934 (ite $x3401 (+ (- ?x1610 ?x2579) 1) (ite $x3263 (+ (- ?x1610 ?x2538) 1) ?x1805))))
(let ((?x1221 (ite $x1523 182 181)))
(let (($x1414 (>= ?x1610 ?x1221)))
(let ((?x2085 (ite $x1523 213 212)))
(let (($x4253 (>= ?x1610 ?x2085)))
(let ((?x4245 (ite $x4253 (+ (- ?x1610 ?x2085) 1) (ite $x1414 (+ (- ?x1610 ?x1221) 1) ?x3934))))
(let ((?x4380 (ite $x1523 244 243)))
(let (($x2443 (>= ?x1610 ?x4380)))
(let ((?x3711 (ite $x1523 274 273)))
(let (($x3803 (>= ?x1610 ?x3711)))
(let ((?x2638 (ite $x3803 (+ (- ?x1610 ?x3711) 1) (ite $x2443 (+ (- ?x1610 ?x4380) 1) ?x4245))))
(let ((?x2953 (ite $x1523 305 304)))
(let (($x4185 (>= ?x1610 ?x2953)))
(let ((?x1051 (ite $x1523 335 334)))
(let (($x4152 (>= ?x1610 ?x1051)))
(let ((?x4251 (ite $x4152 (+ (- ?x1610 ?x1051) 1) (ite $x4185 (+ (- ?x1610 ?x2953) 1) ?x2638))))
(let (($x3439 (= 61 0)))
(let ((?x3659 (+ (+ x_months 2) 24003)))
(let ((?x3898 (- ?x3659 (* (div (- ?x3659 1) 12) 12))))
(let ((?x1688 (ite (or (= ?x3898 4) (= ?x3898 6) (= ?x3898 9) (= ?x3898 11)) 30 31)))
(let (($x3647 (and (= (mod (div (- ?x3659 1) 12) 4) 0) (and (distinct (mod (div (- ?x3659 1) 12) 100) 0) true))))
(let (($x3830 (or $x3647 (= (mod (div (- ?x3659 1) 12) 400) 0))))
(let ((?x3374 (ite (= ?x3898 2) (ite $x3830 29 28) ?x1688)))
(let ((?x3280 (ite $x1605 1 (ite (> ?x1446 ?x3374) ?x3374 ?x1446))))
(let ((?x3272 (ite (> 1 ?x3280) 1 (ite (> ?x3280 ?x3374) ?x3374 ?x3280))))
(let ((?x2043 (ite (= 2 ?x3898) (ite $x3830 31 31) (ite (= 1 ?x3898) (ite $x3830 0 0) 0))))
(let ((?x3721 (ite (= 4 ?x3898) (ite $x3830 91 90) (ite (= 3 ?x3898) (ite $x3830 60 59) ?x2043))))
(let ((?x3638 (ite (= 6 ?x3898) (ite $x3830 152 151) (ite (= 5 ?x3898) (ite $x3830 121 120) ?x3721))))
(let ((?x4356 (ite (= 8 ?x3898) (ite $x3830 213 212) (ite (= 7 ?x3898) (ite $x3830 182 181) ?x3638))))
(let ((?x3816 (ite (= 10 ?x3898) (ite $x3830 274 273) (ite (= 9 ?x3898) (ite $x3830 244 243) ?x4356))))
(let ((?x3820 (ite (= 12 ?x3898) (ite $x3830 335 334) (ite (= 11 ?x3898) (ite $x3830 305 304) ?x3816))))
(let ((?x2111 (+ (* 365 (- (div (- ?x3659 1) 12) 1)) (div (- (div (- ?x3659 1) 12) 1) 4))))
(let ((?x1424 (+ (- ?x2111 (div (- (div (- ?x3659 1) 12) 1) 100)) (div (- (div (- ?x3659 1) 12) 1) 400))))
(let ((?x2343 (+ (+ (- (+ (+ ?x1424 ?x3820) (- ?x3272 1)) 730179) 0) 730179)))
(let ((?x1035 (mod ?x2343 146097)))
(let ((?x1781 (div ?x1035 36524)))
(let ((?x1522 (ite (<= 4 ?x1781) 3 ?x1781)))
(let ((?x4224 (- ?x1035 (* ?x1522 36524))))
(let ((?x1959 (mod ?x4224 1461)))
(let ((?x4379 (div ?x1959 365)))
(let ((?x1505 (ite (<= 4 ?x4379) 3 ?x4379)))
(let ((?x4123 (+ (+ (* (div ?x2343 146097) 400) (* ?x1522 100)) (* (div ?x4224 1461) 4))))
(let ((?x2713 (+ (+ ?x4123 ?x1505) 1)))
(let (($x3459 (or (and (= (mod ?x2713 4) 0) (and (distinct (mod ?x2713 100) 0) true)) (= (mod ?x2713 400) 0))))
(let ((?x1188 (- ?x1959 (* ?x1505 365))))
(let ((?x3351 (ite $x3459 31 31)))
(let (($x4534 (>= ?x1188 ?x3351)))
(let ((?x527 (ite $x4534 (+ (- ?x1188 ?x3351) 1) (+ (- ?x1188 (ite $x3459 0 0)) 1))))
(let ((?x2655 (ite $x3459 60 59)))
(let (($x4499 (>= ?x1188 ?x2655)))
(let ((?x1452 (ite $x3459 91 90)))
(let (($x965 (>= ?x1188 ?x1452)))
(let ((?x2708 (ite $x965 (+ (- ?x1188 ?x1452) 1) (ite $x4499 (+ (- ?x1188 ?x2655) 1) ?x527))))
(let ((?x3791 (ite $x3459 121 120)))
(let (($x2163 (>= ?x1188 ?x3791)))
(let ((?x3650 (ite $x3459 152 151)))
(let (($x3932 (>= ?x1188 ?x3650)))
(let ((?x4309 (ite $x3932 (+ (- ?x1188 ?x3650) 1) (ite $x2163 (+ (- ?x1188 ?x3791) 1) ?x2708))))
(let ((?x1789 (ite $x3459 182 181)))
(let (($x4105 (>= ?x1188 ?x1789)))
(let ((?x2920 (ite $x3459 213 212)))
(let (($x3247 (>= ?x1188 ?x2920)))
(let ((?x3211 (ite $x3247 (+ (- ?x1188 ?x2920) 1) (ite $x4105 (+ (- ?x1188 ?x1789) 1) ?x4309))))
(let ((?x2911 (ite $x3459 244 243)))
(let (($x3986 (>= ?x1188 ?x2911)))
(let ((?x1178 (ite $x3459 274 273)))
(let (($x4122 (>= ?x1188 ?x1178)))
(let ((?x2933 (ite $x4122 (+ (- ?x1188 ?x1178) 1) (ite $x3986 (+ (- ?x1188 ?x2911) 1) ?x3211))))
(let ((?x3100 (ite $x3459 305 304)))
(let (($x901 (>= ?x1188 ?x3100)))
(let ((?x4324 (ite $x3459 335 334)))
(let (($x2747 (>= ?x1188 ?x4324)))
(let ((?x3021 (ite $x2747 (+ (- ?x1188 ?x4324) 1) (ite $x901 (+ (- ?x1188 ?x3100) 1) ?x2933))))
(let (($x682 (= 0 0)))
(let ((?x2032 (ite $x3263 5 (ite $x2965 4 (ite $x4365 3 (ite $x2993 2 1))))))
(let ((?x4181 (ite $x2443 9 (ite $x4253 8 (ite $x1414 7 (ite $x3401 6 ?x2032))))))
(let ((?x2651 (ite $x4152 12 (ite $x4185 11 (ite $x3803 10 ?x4181)))))
(let ((?x2249 (+ (* (ite $x3439 (div (- ?x2706 1) 12) ?x3979) 12) (ite $x3439 ?x1947 ?x2651))))
(let ((?x1689 (ite $x2163 5 (ite $x965 4 (ite $x4499 3 (ite $x4534 2 1))))))
(let ((?x1082 (ite $x3986 9 (ite $x3247 8 (ite $x4105 7 (ite $x3932 6 ?x1689))))))
(let ((?x1800 (+ (* (ite $x682 (div (- ?x3659 1) 12) ?x2713) 12) (ite $x682 ?x3898 (ite $x2747 12 (ite $x901 11 (ite $x4122 10 ?x1082)))))))
(and (= (- ?x1800 24003) (- ?x2249 24003)) (= (- (ite $x682 ?x3272 ?x3021) 1) (- (ite $x3439 ?x1427 ?x4251) 1)))))))))))))))))))))))))))))))))))))))))))))))))))))))))))))))))))))))))))))))))))))))))))))))))))))))))))))))))))))))))))))))
(check-sat)
